1
1000
52
128 2
129 3
130 2
131 5
132 2
133 2
134 2
135 2
136 3
137 6
138 8
139 2
140 4
141 3
142 1
143 3
144 8
145 4
146 5
147 7
148 5
149 7
150 3
151 4
152 2
153 3
154 4
156 3
157 5
158 6
160 6
161 7
162 4
163 3
164 2
165 3
166 2
167 4
168 7
115 4
116 7
117 3
118 2
119 4
120 5
121 2
122 3
123 3
124 3
125 1
126 5
127 4
